c 204_3_checker_6cl.cnf
c
c field = 204
c formula set type = 3_checker_6cl
c
p cnf 6 22
400 
402 
404 
-399 
-396 
-408 
401 
403 
405 
-398 
-397 
-409 
400 
402 
404 
-409 
-398 
-410 
401 
403 
405 
-408 
-399 
-411 
402 
404 
408 
-401 
-398 
-410 
403 
405 
409 
-400 
-399 
-411 
402 
404 
408 
-411 
-400 
-412 
403 
405 
409 
-410 
-401 
-413 
404 
408 
410 
-403 
-400 
-412 
405 
409 
411 
-402 
-401 
-413 
404 
408 
410 
-413 
-402 
-414 
405 
409 
411 
-412 
-403 
-415 
408 
410 
412 
-405 
-402 
-414 
409 
411 
413 
-404 
-403 
-415 
408 
410 
412 
-415 
-404 
-416 
409 
411 
413 
-414 
-405 
-417 
316 
346 
376 
-287 
-256 
-436 
317 
347 
377 
-286 
-257 
-437 
310 
342 
374 
-279 
-246 
-438 
311 
343 
375 
-278 
-247 
-439 
322 
350 
378 
-295 
-266 
-434 
323 
351 
379 
-294 
-267 
-435 
